Solver command line: ['C:\\Users\\user-pc\\anaconda3\\pkgs\\ipopt-3.11.1-2\\Library\\bin\\ipopt.exe', 'C:\\Users\\user-pc\\AppData\\Local\\Temp\\tmpzuudavjz.pyomo.nl', '-AMPL', 'print_level=5', 'max_iter=400', 'max_cpu_time=3600', 'tol=0.1', 'option_file_name=C:\\Users\\user-pc\\AppData\\Local\\Temp\\tmpzrnxvbq__ipopt.opt']

Ipopt 3.11.1: print_level=5

max_iter=400

max_cpu_time=3600

tol=0.1

option_file_name=C:\Users\user-pc\AppData\Local\Temp\tmpzrnxvbq__ipopt.opt



Using option file "C:\Users\user-pc\AppData\Local\Temp\tmpzrnxvbq__ipopt.opt".





******************************************************************************

This program contains Ipopt, a library for large-scale nonlinear optimization.

 Ipopt is released as open source code under the Eclipse Public License (EPL).

         For more information visit http://projects.coin-or.org/Ipopt

******************************************************************************



NOTE: You are using Ipopt by default with the MUMPS linear solver.

      Other linear solvers might be more efficient (see Ipopt documentation).





This is Ipopt version 3.11.1, running with linear solver mumps.



Number of nonzeros in equality constraint Jacobian...:   215367

Number of nonzeros in inequality constraint Jacobian.:     5559

Number of nonzeros in Lagrangian Hessian.............:        0



Total number of variables............................:    54780

                     variables with only lower bounds:        0

                variables with lower and upper bounds:        0

                     variables with only upper bounds:        0

Total number of equality constraints.................:    50499

Total number of inequality constraints...............:     5559

        inequality constraints with only lower bounds:        0

   inequality constraints with lower and upper bounds:        0

        inequality constraints with only upper bounds:     5559



iter    objective    inf_pr   inf_du lg(mu)  ||d||  lg(rg) alpha_du alpha_pr  ls

   0 -5.1396704e+003 2.44e+003 1.00e+000   0.0 0.00e+000    -  0.00e+000 0.00e+000   0

  10 1.2164198e+005 1.21e+003 1.34e+004   1.6 6.31e+002  -4.5 1.44e-001 5.41e-001h  1

  20 7.4575038e+004 1.15e+003 6.14e+002  -5.6 1.04e+002  -9.3 3.04e-001 2.27e-002f  1

  30 6.8201386e+004 1.15e+003 1.06e+003   0.9 3.75e+002 -14.0 1.15e-001 1.00e+000f  1

  40 5.8915803e+004 1.15e+003 1.39e+002  -0.4 1.25e+002 -16.1 3.00e-001 1.00e+000f  1

  50 5.5576678e+004 1.15e+003 2.35e+002  -0.1 3.17e+002 -13.6 8.60e-001 1.00e+000f  1

  60 5.5326989e+004 1.15e+003 5.07e+002  -0.6 1.17e+002 -16.6 9.56e-002 9.18e-001h  1

  70 5.4999726e+004 1.15e+003 2.55e+002  -0.6 2.98e+001 -14.2 4.67e-001 1.00e+000h  1

  80 5.4910887e+004 1.15e+003 1.03e+002  -1.5 2.66e+001 -13.5 9.88e-001 1.00e+000H  1

  90 5.4835959e+004 1.15e+003 8.70e+000  -2.0 1.09e+001 -14.7 1.00e+000 1.00e+000h  1

iter    objective    inf_pr   inf_du lg(mu)  ||d||  lg(rg) alpha_du alpha_pr  ls

 100 5.4762396e+004 1.15e+003 4.63e+000  -2.1 1.89e+000 -14.9 1.00e+000 1.00e+000h  1

 110 5.4761897e+004 1.15e+003 8.15e+000  -5.8 6.94e+000 -14.3 1.00e+000 1.00e+000H  1

 120r5.4762035e+004 1.15e+003 5.78e+001  -5.2 1.56e-002    -  7.66e-001 7.29e-001f  1



Number of Iterations....: 127



                                   (scaled)                 (unscaled)

Objective...............:  5.4762704475558290e+004   5.4762704475558290e+004

Dual infeasibility......:  9.2071877027026061e-001   9.2071877027026061e-001

Constraint violation....:  7.1222929537838468e+002   1.1519726686686806e+003

Complementarity.........:  1.8541105580267034e-005   1.8541105580267034e-005

Overall NLP error.......:  7.1222929537838468e+002   1.1519726686686806e+003





Number of objective function evaluations             = 209

Number of objective gradient evaluations             = 117

Number of equality constraint evaluations            = 209

Number of inequality constraint evaluations          = 209

Number of equality constraint Jacobian evaluations   = 130

Number of inequality constraint Jacobian evaluations = 130

Number of Lagrangian Hessian evaluations             = 0

Total CPU secs in IPOPT (w/o function evaluations)   =    329.223

Total CPU secs in NLP function evaluations           =     55.282





Timing Statistics:



OverallAlgorithm....................:    384.505 (sys:      0.000 wall:    384.503)

 PrintProblemStatistics.............:      0.001 (sys:      0.000 wall:      0.001)

 InitializeIterates.................:     32.578 (sys:      0.000 wall:     32.578)

 UpdateHessian......................:      0.198 (sys:      0.000 wall:      0.195)

 OutputIteration....................:      0.002 (sys:      0.000 wall:      0.002)

 UpdateBarrierParameter.............:    255.486 (sys:      0.000 wall:    255.492)

 ComputeSearchDirection.............:     32.824 (sys:      0.000 wall:     32.822)

 ComputeAcceptableTrialPoint........:     55.008 (sys:      0.000 wall:     55.003)

 AcceptTrialPoint...................:      0.008 (sys:      0.000 wall:      0.008)

 CheckConvergence...................:      8.399 (sys:      0.000 wall:      8.402)

PDSystemSolverTotal.................:    288.658 (sys:      0.000 wall:    288.656)

 PDSystemSolverSolveOnce............:    288.156 (sys:      0.000 wall:    288.158)

 ComputeResiduals...................:      0.455 (sys:      0.000 wall:      0.450)

 StdAugSystemSolverMultiSolve.......:    325.782 (sys:      0.000 wall:    325.787)

 LinearSystemScaling................:      0.000 (sys:      0.000 wall:      0.000)

 LinearSystemSymbolicFactorization..:      0.155 (sys:      0.000 wall:      0.155)

 LinearSystemFactorization..........:      0.000 (sys:      0.000 wall:      0.000)

 LinearSystemBackSolve..............:     63.554 (sys:      0.000 wall:     63.558)

 LinearSystemStructureConverter.....:      0.000 (sys:      0.000 wall:      0.000)

  LinearSystemStructureConverterInit:      0.000 (sys:      0.000 wall:      0.000)

QualityFunctionSearch...............:      0.072 (sys:      0.000 wall:      0.074)

TryCorrector........................:      0.000 (sys:      0.000 wall:      0.000)

Task1...............................:      0.025 (sys:      0.000 wall:      0.026)

Task2...............................:      0.016 (sys:      0.000 wall:      0.017)

Task3...............................:      0.006 (sys:      0.000 wall:      0.006)

Task4...............................:      0.000 (sys:      0.000 wall:      0.000)

Task5...............................:      0.022 (sys:      0.000 wall:      0.022)

Function Evaluations................:     55.282 (sys:      0.000 wall:     55.279)

 Objective function.................:     10.184 (sys:      0.000 wall:     10.189)

 Objective function gradient........:      2.204 (sys:      0.000 wall:      2.210)

 Equality constraints...............:     35.545 (sys:      0.000 wall:     35.536)

 Inequality constraints.............:      0.197 (sys:      0.000 wall:      0.196)

 Equality constraint Jacobian.......:      7.147 (sys:      0.000 wall:      7.143)

 Inequality constraint Jacobian.....:      0.005 (sys:      0.000 wall:      0.005)

 Lagrangian Hessian.................:      0.000 (sys:      0.000 wall:      0.000)



EXIT: Converged to a point of local infeasibility. Problem may be infeasible.


